language Essence 1.3

letting pos be
        function((1, 1) --> 1, (1, 2) --> 3, (2, 1) --> 2, (2, 2) --> 5, (3, 1) --> 12, (3, 2) --> 16, (4, 1) --> 4,
                 (4, 2) --> 9, (5, 1) --> 14, (5, 2) --> 20, (6, 1) --> 11, (6, 2) --> 18, (7, 1) --> 13, (7, 2) --> 21,
                 (8, 1) --> 6, (8, 2) --> 15, (9, 1) --> 7, (9, 2) --> 17, (10, 1) --> 8, (10, 2) --> 19,
                 (11, 1) --> 10, (11, 2) --> 22)
letting seq be sequence(1, 2, 1, 4, 2, 8, 9, 10, 4, 11, 6, 3, 7, 5, 8, 3, 9, 6, 10, 5, 7, 11)
